proyfinal/src/viki/013/experimentInOfficeAgust.take6.output/cef073d2-3a8f-41fc-8f8e-3cced32652d3.als.dat
{'cnf.clauses': '118081',
 'cnf.totvars': '69608',
 'conflict literals': '60',
 'conflicts': '19',
 'decisions': '7774',
 'memused.mb': '17.40',
 'outcome': 'UNSAT',
 'propagations': '33358',
 'restarts': '1',
 'solver.msecs': 33,
 'task.msecs': 89}
