proyfinal/src/viki/013/experimentInOfficeAgust.take6.output/cef073d2-3a8f-41fc-8f8e-3cced32652d3.als.out
Reading from standard input... Use '--help' for help.
============================[ Problem Statistics ]=============================
|                                                                             |
|  Number of variables:         69608                                         |
|  Number of clauses:          118081                                         |
|  Parse time:                   0.03 s                                       |
|                                                                             |
============================[ Search Statistics ]==============================
| Conflicts |          ORIGINAL         |          LEARNT          | Progress |
|           |    Vars  Clauses Literals |    Limit  Clauses Lit/Cl |          |
===============================================================================
===============================================================================
restarts              : 1
conflicts             : 19             (569 /sec)
decisions             : 7774           (0.00 % random) (232650 /sec)
propagations          : 33358          (998294 /sec)
conflict literals     : 60             (0.00 % deleted)
Memory used           : 17.40 MB
CPU time              : 0.033415 s

UNSATISFIABLE
